
******************************************************************************
This program contains Ipopt, a library for large-scale nonlinear optimization.
 Ipopt is released as open source code under the Eclipse Public License (EPL).
         For more information visit http://projects.coin-or.org/Ipopt
******************************************************************************

This is Ipopt version 3.12.6, running with linear solver ma57.

Number of nonzeros in equality constraint Jacobian...:        0
Number of nonzeros in inequality constraint Jacobian.:     6000
Number of nonzeros in Lagrangian Hessian.............:     2002

Total number of variables............................:     2002
                     variables with only lower bounds:        0
                variables with lower and upper bounds:        0
                     variables with only upper bounds:        0
Total number of equality constraints.................:        0
Total number of inequality constraints...............:     2000
        inequality constraints with only lower bounds:     2000
   inequality constraints with lower and upper bounds:        0
        inequality constraints with only upper bounds:        0

iter    objective    inf_pr   inf_du lg(mu)  ||d||  lg(rg) alpha_du alpha_pr  ls
   0  5.0525548e+02 0.00e+00 1.05e+00  -1.0 0.00e+00    -  0.00e+00 0.00e+00   0
   1  7.3096558e+01 3.58e-03 3.87e+00  -1.0 1.00e+00    -  1.00e+00 6.32e-01f  1
   2  1.8479764e+01 1.53e-03 1.46e+01  -1.0 3.70e-01    -  1.00e+00 5.72e-01h  1
   3  8.8033142e+00 6.42e-04 3.61e+01  -1.0 2.46e-01    -  1.00e+00 5.78e-01h  1
   4  7.9891327e+00 2.72e-04 8.70e+01  -1.0 2.25e-01    -  1.00e+00 5.75e-01h  1
   5  9.1334819e+00 1.12e-04 1.99e+02  -1.0 2.17e-01    -  1.00e+00 5.89e-01h  1
   6  1.1352828e+01 4.72e-05 4.97e+02  -1.0 2.15e-01    -  1.00e+00 5.78e-01h  1
   7  1.4883813e+01 1.99e-05 1.21e+03  -1.0 2.17e-01    -  1.00e+00 5.78e-01h  1
   8  2.0001330e+01 9.20e-06 3.43e+03  -1.0 2.23e-01    -  1.00e+00 5.40e-01h  1
   9  2.7093793e+01 4.98e-06 1.21e+04  -1.0 2.48e-01    -  1.00e+00 4.63e-01h  1
iter    objective    inf_pr   inf_du lg(mu)  ||d||  lg(rg) alpha_du alpha_pr  ls
  10  5.0887139e+01 2.66e-06 3.72e+04  -1.0 3.66e-01    -  1.00e+00 4.70e-01h  1
  11  2.3199128e+02 0.00e+00 1.00e-06  -1.0 4.62e-01    -  1.00e+00 1.00e+00h  1
  12  1.2911827e+02 0.00e+00 3.20e-11  -5.7 6.62e-01    -  1.00e+00 1.00e+00f  1
  13  1.0259270e+02 0.00e+00 2.95e-11  -5.7 2.67e-01    -  1.00e+00 1.00e+00f  1
  14  9.9068657e+01 0.00e+00 2.70e-11  -8.6 6.32e-02    -  1.00e+00 1.00e+00f  1
  15  9.8978295e+01 0.00e+00 2.65e-11  -8.6 4.06e-03    -  1.00e+00 1.00e+00f  1

Number of Iterations....: 15

                                   (scaled)                 (unscaled)
Objective...............:   9.8978294641344348e+01    9.8978294641344348e+01
Dual infeasibility......:   2.6500801553197562e-11    2.6500801553197562e-11
Constraint violation....:   0.0000000000000000e+00    0.0000000000000000e+00
Complementarity.........:   3.3794874850743109e-06    3.3794874850743109e-06
Overall NLP error.......:   7.3888691183592361e-09    3.3794874850743109e-06


Number of objective function evaluations             = 16
Number of objective gradient evaluations             = 16
Number of equality constraint evaluations            = 0
Number of inequality constraint evaluations          = 16
Number of equality constraint Jacobian evaluations   = 0
Number of inequality constraint Jacobian evaluations = 16
Number of Lagrangian Hessian evaluations             = 15
Total CPU secs in IPOPT (w/o function evaluations)   =      0.050
Total CPU secs in NLP function evaluations           =      0.013

EXIT: Optimal Solution Found.

************************ CUTEst statistics ************************


 Package used            :  IPOPT
 Problem                 :  LISWET7   
 # variables             =            2002
 # constraints           =            2000
 # objective functions   =        0.3300000E+02
 # objective gradients   =        0.1700000E+02
 # objective Hessians    =        0.1600000E+02
 # Hessian-vector prdct  =        0.0000000E+00
 # constraints functions =        0.3400000E+02
 # constraints gradients =        0.1800000E+02
 # constraints Hessians  =        0.1600000E+02
 Exit code               =               0
 Final f                 =   0.9897829E+02
 Set up time             =            0.04 seconds
 Solve time              =            0.18 seconds


******************************************************************

System Time =       0.0450000018 s.
